language ESSENCE' 1.0
letting lastdx=103
letting cage be [
[12,2,8,0,0, 0,0, 0,0, 0,0],
[11,14,4,0,0, 0,0, 0,0, 0,0],
[15,9,6,0,0, 0,0, 0,0, 0,0],
[19,3,16,3,15,2,15,2,16,0,0],
[27,16,4,16,5,15,5,0,0, 0,0],
[16,9,13,0,0, 0,0, 0,0, 0,0],
[5,16,13,0,0, 0,0, 0,0, 0,0],
[22,11,3,12,3,0,0, 0,0, 0,0],
[26,8,9,8,8,8,7,7,7,0,0],
[13,2,6,0,0, 0,0, 0,0, 0,0],
[9,12,8,0,0, 0,0, 0,0, 0,0],
[26,10,10,10,11,9,11,0,0, 0,0],
[28,14,1,14,2,14,3,15,3,15,4],
[12,8,1,0,0, 0,0, 0,0, 0,0],
[12,3,2,0,0, 0,0, 0,0, 0,0],
[51,4,2,5,2,5,1,6,1,0,0],
[3,6,4,0,0, 0,0, 0,0, 0,0],
[47,14,8,15,8,15,9,14,9,0,0],
[41,3,3,3,4,4,4,4,5,4,6],
[43,8,11,8,12,8,13,8,14,0,0],
[7,8,3,8,2,0,0, 0,0, 0,0],
[30,1,13,1,12,2,12,2,13,0,0],
[46,8,4,9,4,10,4,11,4,12,4],
[5,1,6,0,0, 0,0, 0,0, 0,0],
[31,14,5,14,6,13,6,0,0, 0,0],
[7,13,10,0,0, 0,0, 0,0, 0,0],
[46,6,3,7,3,7,2,6,2,7,1],
[57,6,16,5,16,5,15,5,14,4,14],
[26,6,5,5,5,5,4,5,3,4,3],
[11,3,14,0,0, 0,0, 0,0, 0,0],
[33,1,8,1,7,2,7,3,7,3,8],
[9,6,9,0,0, 0,0, 0,0, 0,0],
[10,14,13,0,0, 0,0, 0,0, 0,0],
[11,8,15,0,0, 0,0, 0,0, 0,0],
[9,2,3,0,0, 0,0, 0,0, 0,0],
[10,16,11,0,0, 0,0, 0,0, 0,0],
[24,1,4,2,4,0,0, 0,0, 0,0],
[41,11,11,12,11,13,11,13,12,0,0],
[53,14,14,15,14,15,13,15,12,16,12],
[8,14,10,0,0, 0,0, 0,0, 0,0],
[6,14,15,15,15,0,0, 0,0, 0,0],
[35,10,16,11,16,11,15,10,15,10,14],
[12,7,16,0,0, 0,0, 0,0, 0,0],
[10,11,14,0,0, 0,0, 0,0, 0,0],
[2,16,1,0,0, 0,0, 0,0, 0,0],
[29,11,10,11,9,10,9,0,0, 0,0],
[14,16,9,0,0, 0,0, 0,0, 0,0],
[21,11,5,10,5,10,6,10,7,0,0],
[16,7,12,0,0, 0,0, 0,0, 0,0],
[31,2,9,1,9,1,10,0,0, 0,0],
[1,16,8,0,0, 0,0, 0,0, 0,0],
[15,13,1,0,0, 0,0, 0,0, 0,0],
[12,4,13,0,0, 0,0, 0,0, 0,0],
[12,5,10,4,10,0,0, 0,0, 0,0],
[15,1,3,0,0, 0,0, 0,0, 0,0],
[53,7,8,6,8,6,7,5,7,5,8],
[11,11,7,0,0, 0,0, 0,0, 0,0],
[25,11,13,12,13,0,0, 0,0, 0,0],
[39,4,8,4,7,4,9,5,9,3,9],
[31,11,2,12,2,13,2,13,3,0,0],
[22,9,14,9,15,9,16,8,16,0,0],
[34,13,13,13,14,12,14,12,15,13,15],
[16,1,15,1,16,0,0, 0,0, 0,0],
[38,10,13,10,12,9,12,11,12,12,12],
[30,16,16,16,15,16,14,0,0, 0,0],
[21,6,15,6,14,0,0, 0,0, 0,0],
[18,1,1,1,2,0,0, 0,0, 0,0],
[10,1,5,0,0, 0,0, 0,0, 0,0],
[12,1,11,0,0, 0,0, 0,0, 0,0],
[23,1,14,2,14,0,0, 0,0, 0,0],
[15,2,1,2,2,0,0, 0,0, 0,0],
[34,2,5,3,5,3,6,0,0, 0,0],
[6,2,10,2,11,0,0, 0,0, 0,0],
[5,3,1,4,1,0,0, 0,0, 0,0],
[6,3,10,0,0, 0,0, 0,0, 0,0],
[30,3,11,3,12,3,13,0,0, 0,0],
[16,4,11,0,0, 0,0, 0,0, 0,0],
[5,4,12,0,0, 0,0, 0,0, 0,0],
[23,4,15,4,16,0,0, 0,0, 0,0],
[9,5,6,0,0, 0,0, 0,0, 0,0],
[25,5,11,6,11,6,12,0,0, 0,0],
[5,5,12,5,13,0,0, 0,0, 0,0],
[25,6,6,7,6,8,6,0,0, 0,0],
[27,6,10,7,10,7,9,7,11,0,0],
[1,6,13,0,0, 0,0, 0,0, 0,0],
[41,7,4,7,5,8,5,9,5,0,0],
[19,7,13,7,14,7,15,0,0, 0,0],
[10,8,10,0,0, 0,0, 0,0, 0,0],
[26,9,1,10,1,10,2,0,0, 0,0],
[2,9,2,0,0, 0,0, 0,0, 0,0],
[20,9,3,10,3,0,0, 0,0, 0,0],
[14,9,7,0,0, 0,0, 0,0, 0,0],
[28,9,8,9,9,9,10,0,0, 0,0],
[11,10,8,11,8,0,0, 0,0, 0,0],
[12,11,1,12,1,0,0, 0,0, 0,0],
[31,11,6,12,6,12,7,0,0, 0,0],
[6,12,5,0,0, 0,0, 0,0, 0,0],
[34,12,16,13,16,14,16,15,16,0,0],
[17,13,4,13,5,0,0, 0,0, 0,0],
[15,14,7,15,7,16,7,0,0, 0,0],
[17,14,11,14,12,0,0, 0,0, 0,0],
[44,15,1,15,2,16,2,16,3,0,0],
[14,15,6,16,6,0,0, 0,0, 0,0],
[25,15,10,15,11,16,10,0,0, 0,0]
]
